NAME          ClpDefau  FREE
ROWS
 N  OBJROW
 L  ZMUNI1_PCT
 L  ZMUNI2_PCT
 L  ZMUNI3_PCT
 L  ZMUNI4_PCT
 L  ZMUNI5_PCT
 L  ZMUNI6_PCT
 L  ZMUNI7_PCT
 L  ZMUNI8_PCT
 L  ZMUNI9_PCT
COLUMNS
    QMUNI1 OBJROW 1.          
    QMUNI1 ZMUNI1_PCT 29141.9983  
    QMUNI1 ZMUNI2_PCT 1443.1      
    QMUNI1 ZMUNI3_PCT 3900.1465   
    QMUNI1 ZMUNI4_PCT 2896.8811   
    QMUNI1 ZMUNI5_PCT  -131.0348  
    QMUNI1 ZMUNI6_PCT 44.2505     
    QMUNI1 ZMUNI7_PCT 1301.9562   
    QMUNI1 ZMUNI8_PCT 786.972     
    QMUNI1 ZMUNI9_PCT  -299.4537  
    QMUNI2 OBJROW 1.          
    QMUNI2 ZMUNI1_PCT 977.7069    
    QMUNI2 ZMUNI2_PCT 34513.855   
    QMUNI2 ZMUNI3_PCT 1798.439    
    QMUNI2 ZMUNI4_PCT 2108.3832   
    QMUNI2 ZMUNI5_PCT  -854.4922  
    QMUNI2 ZMUNI6_PCT  -767.517   
    QMUNI2 ZMUNI7_PCT  -357.8186  
    QMUNI2 ZMUNI8_PCT  -119.7815  
    QMUNI2 ZMUNI9_PCT  -429.9163  
    QMUNI3 OBJROW 1.          
    QMUNI3 ZMUNI1_PCT 3852.4628   
    QMUNI3 ZMUNI2_PCT 2336.6928   
    QMUNI3 ZMUNI3_PCT 30676.8417  
    QMUNI3 ZMUNI4_PCT 4974.556    
    QMUNI3 ZMUNI5_PCT  -112.915   
    QMUNI3 ZMUNI6_PCT  -1.9073    
    QMUNI3 ZMUNI7_PCT 1088.7146   
    QMUNI3 ZMUNI8_PCT 893.7836    
    QMUNI3 ZMUNI9_PCT 43.1061     
    QMUNI4 OBJROW 1.          
    QMUNI4 ZMUNI1_PCT 2658.6533   
    QMUNI4 ZMUNI2_PCT 2375.412    
    QMUNI4 ZMUNI3_PCT 4847.1451   
    QMUNI4 ZMUNI4_PCT 112879.3717 
    QMUNI4 ZMUNI5_PCT  -681.8771  
    QMUNI4 ZMUNI6_PCT  -579.6432  
    QMUNI4 ZMUNI7_PCT 24.0326     
    QMUNI4 ZMUNI8_PCT  -38.9099   
    QMUNI4 ZMUNI9_PCT  -803.1845  
    QMUNI5 OBJROW 1.          
    QMUNI5 ZMUNI1_PCT  -347.5189  
    QMUNI5 ZMUNI2_PCT  -482.3685  
    QMUNI5 ZMUNI3_PCT  -398.2544  
    QMUNI5 ZMUNI4_PCT  -383.9493  
    QMUNI5 ZMUNI5_PCT 36738.0142  
    QMUNI5 ZMUNI6_PCT 2273.3689   
    QMUNI5 ZMUNI7_PCT  -699.234   
    QMUNI5 ZMUNI8_PCT  -910.1868  
    QMUNI5 ZMUNI9_PCT  -1248.1689 
    QMUNI6 OBJROW 1.          
    QMUNI6 ZMUNI1_PCT  -539.5889  
    QMUNI6 ZMUNI2_PCT  -728.9887  
    QMUNI6 ZMUNI3_PCT  -614.7385  
    QMUNI6 ZMUNI4_PCT  -581.932   
    QMUNI6 ZMUNI5_PCT 1793.6707   
    QMUNI6 ZMUNI6_PCT 32449.1501  
    QMUNI6 ZMUNI7_PCT  -1148.2238 
    QMUNI6 ZMUNI8_PCT  -1360.7025 
    QMUNI6 ZMUNI9_PCT  -1785.0875 
    QMUNI7 OBJROW 1.          
    QMUNI7 ZMUNI1_PCT 661.2778    
    QMUNI7 ZMUNI2_PCT 5.7220000002
    QMUNI7 ZMUNI3_PCT 474.9298    
    QMUNI7 ZMUNI4_PCT 271.9879    
    QMUNI7 ZMUNI5_PCT  -571.6324  
    QMUNI7 ZMUNI6_PCT  -373.6496  
    QMUNI7 ZMUNI7_PCT 31924.82    
    QMUNI7 ZMUNI8_PCT 932.312     
    QMUNI7 ZMUNI9_PCT  -1137.5427 
    QMUNI8 OBJROW 1.          
    QMUNI8 ZMUNI1_PCT 623.1308    
    QMUNI8 ZMUNI2_PCT 471.6873    
    QMUNI8 ZMUNI3_PCT 647.5449    
    QMUNI8 ZMUNI4_PCT 481.7963    
    QMUNI8 ZMUNI5_PCT  -615.6921  
    QMUNI8 ZMUNI6_PCT  -508.3084  
    QMUNI8 ZMUNI7_PCT 1475.5249   
    QMUNI8 ZMUNI8_PCT 29422.76    
    QMUNI8 ZMUNI9_PCT 215.5304    
    QMUNI9 OBJROW 1.          
    QMUNI9 ZMUNI1_PCT  -189.7812  
    QMUNI9 ZMUNI2_PCT 55.5038     
    QMUNI9 ZMUNI3_PCT  -111.3892  
    QMUNI9 ZMUNI4_PCT  -84.877    
    QMUNI9 ZMUNI5_PCT  -745.964   
    QMUNI9 ZMUNI6_PCT  -766.1819  
    QMUNI9 ZMUNI7_PCT  -872.0398  
    QMUNI9 ZMUNI8_PCT  -363.1592  
    QMUNI9 ZMUNI9_PCT 27950.6684  
RHS
    RHS ZMUNI1_PCT  -1.1177046 
    RHS ZMUNI2_PCT 0.1088260563
    RHS ZMUNI3_PCT  -0.20441639
    RHS ZMUNI4_PCT 5.4328636156
    RHS ZMUNI5_PCT 0.7736176764
    RHS ZMUNI6_PCT  -0.51041082
    RHS ZMUNI7_PCT 0.989123419 
    RHS ZMUNI8_PCT 0.9927434286
    RHS ZMUNI9_PCT 2.299486265 
BOUNDS
 LO BOUND QMUNI1 -0.000727919
 UP BOUND QMUNI1      1.1e+10
 LO BOUND QMUNI2 -0.00048757 
 UP BOUND QMUNI2      1.1e+10
 LO BOUND QMUNI3 -0.000566873
 UP BOUND QMUNI3      1.1e+10
 LO BOUND QMUNI4 -0.000164944
 UP BOUND QMUNI4      1.1e+10
 LO BOUND QMUNI5 -0.000330272
 UP BOUND QMUNI5      1.1e+10
 LO BOUND QMUNI6 -0.000511945
 UP BOUND QMUNI6      1.1e+10
 LO BOUND QMUNI7 -0.000155778
 UP BOUND QMUNI7      1.1e+10
 LO BOUND QMUNI8 -0.000266848
 UP BOUND QMUNI8      1.1e+10
 LO BOUND QMUNI9 -0.000234565
 UP BOUND QMUNI9      1.1e+10
ENDATA
